nb_recettes = 10;
nb_ingredients = 39;
nb_moments = 3;
nb_nationalites = 10;


% Noms des ingredients:
% ['applesauce', 'baking powder', 'baking soda', 'banana', 'bread', 'brown sugar', 'butter', 'buttermilk', 'cake', 'chocolate', 'cinnamon', 'clove', 'cocoa powder', 'coconut', 'cola', 'cornmeal', 'cream cheese', 'date', 'egg', 'flour', 'macadamia nut', 'margarine', 'milk', 'nutmeg', 'orange juice', 'prune', 'salt', 'shortening', 'spice', 'strawberry', 'sugar', 'topping thawed', 'vanilla', 'vegetable oil', 'walnut', 'water', 'whipping cream', 'white sugar', 'yeast']

ingredients = [|0, 15, 5, 0, 0, 0, 562, 500, 0, 0, 0, 0, 0, 0, 0, 0, 0, 0, 1, 750, 0, 0, 0, 0, 0, 0, 5, 0, 0, 0, 0, 0, 0, 0, 0, 0, 0, 83, 0,
|0, 0, 0, 0, 0, 0, 0, 0, 312, 0, 0, 0, 125, 0, 0, 0, 0, 0, 5, 0, 0, 0, 0, 0, 0, 0, 0, 0, 0, 0, 0, 0, 0, 312, 312, 0, 0, 625, 0,
|0, 0, 0, 188, 812, 0, 0, 0, 0, 0, 0, 0, 0, 0, 0, 0, 0, 0, 1, 0, 125, 30, 0, 0, 0, 0, 6, 0, 0, 0, 0, 0, 0, 0, 0, 167, 0, 45, 14,
|0, 0, 0, 0, 0, 0, 125, 0, 1, 0, 0, 0, 0, 0, 0, 0, 0, 0, 4, 0, 0, 0, 0, 0, 188, 0, 0, 0, 0, 0, 0, 0, 1, 125, 0, 250, 0, 188, 0,
|0, 0, 5, 0, 0, 0, 0, 0, 0, 0, 5, 1, 0, 0, 0, 0, 0, 0, 2, 500, 0, 0, 0, 1, 0, 500, 5, 125, 1, 0, 0, 0, 0, 0, 250, 0, 0, 250, 0,
|0, 0, 0, 0, 0, 0, 0, 0, 1, 0, 0, 0, 0, 1, 1, 0, 0, 0, 0, 0, 0, 0, 1, 0, 0, 0, 0, 0, 0, 0, 0, 1, 0, 0, 0, 0, 0, 0, 0,
|0, 0, 5, 0, 0, 0, 125, 0, 0, 250, 0, 0, 15, 0, 0, 0, 0, 250, 2, 438, 0, 0, 0, 0, 0, 0, 1, 0, 0, 0, 0, 0, 0, 0, 125, 250, 0, 250, 0,
|125, 0, 2, 0, 0, 125, 0, 0, 0, 250, 1, 0, 62, 0, 0, 0, 0, 0, 1, 250, 0, 62, 0, 0, 0, 0, 0, 0, 0, 0, 280, 0, 2, 0, 0, 0, 0, 125, 0,
|0, 0, 1, 0, 625, 0, 0, 0, 0, 0, 0, 0, 0, 0, 0, 30, 0, 0, 0, 0, 0, 0, 188, 0, 0, 0, 2, 0, 0, 0, 0, 0, 0, 0, 0, 132, 0, 15, 11,
|0, 0, 0, 0, 0, 0, 0, 0, 1, 8, 0, 0, 0, 0, 0, 0, 12, 0, 0, 0, 0, 0, 0, 0, 0, 0, 0, 0, 0, 0, 0, 1, 0, 0, 0, 0, 250, 0, 0|];

qtes_disponibles = [[0, 0, 0, 0, 0, 0, 0, 0, 0, 0, 0, 0, 0, 0, 0, 0, 0, 0, 10000, 0, 0, 0, 0, 0, 0, 10000, 0, 0, 0, 10000, 0, 0, 0, 0, 0, 0, 0]];

peremptions = [[0, 0, 0, 0, 0, 0, 0, 0, 0, 0, 0, 0, 0, 0, 0, 0, 0, 0, 0, 0, 0, 0, 0, 0, 0, 0, 0, 0, 0, 0, 0, 0, 0, 0, 0, 0, 0]];


% Noms des recettes:
% ['Irresistible Irish Soda Bread Recipe ', 'Passover Brownie Cake Recipe ', 'Banana Macadamia Nut Bread Recipe ', 'Orange Juice Cake Recipe ', 'Festive Prune Cake Recipe ', 'Pina Colada Cake II Recipe ', 'Chocolate Date Cake I Recipe ', 'Fudgy Chocolate Chip Muffins Recipe ', "'Schlotsky''s Bread Recipe '", 'Strawberry Dream Cake I Recipe ']

% Noms des moments:
% ['breakfast', 'lunch', 'dinner']

moments = [|1, 1, 0,
|0, 1, 0,
|0, 1, 1,
|1, 1, 0,
|1, 1, 0,
|1, 1, 1,
|0, 1, 0,
|1, 1, 0,
|0, 1, 0,
|0, 1, 0|];


% Noms des nationalites:
% ('american', 'mexican', 'french', 'canadian', 'japanese', 'chinese', 'korean', 'portuguese', 'spanish', 'polish')

nationalites = [|False, False, False, True, True, False, False, False, False, False,
|False, False, False, False, True, False, False, False, False, False,
|False, False, False, False, True, False, False, False, False, False,
|False, False, False, False, True, False, False, False, False, False,
|False, False, False, False, True, False, False, True, False, True,
|False, False, False, False, True, False, False, False, False, False,
|True, False, False, False, True, False, False, False, False, False,
|True, False, False, False, True, False, False, False, False, False,
|True, False, False, False, True, False, False, False, False, False,
|True, False, False, False, True, False, False, False, False, False|];

preferences_nationalites = [[0, 0, 0, 0, 0, 0, 0, 0]];

